; benchmark generated from python API
(set-info :status unknown)
(declare-fun cell_1_1 () Int)
(declare-fun cell_1_3 () Int)
(declare-fun cell_2_6 () Int)
(declare-fun cell_2_8 () Int)
(declare-fun cell_3_4 () Int)
(declare-fun cell_3_8 () Int)
(declare-fun cell_4_6 () Int)
(declare-fun cell_4_9 () Int)
(declare-fun cell_5_9 () Int)
(declare-fun cell_6_3 () Int)
(declare-fun cell_7_5 () Int)
(declare-fun cell_8_2 () Int)
(declare-fun cell_9_7 () Int)
(declare-fun cell_2_1 () Int)
(declare-fun cell_3_1 () Int)
(declare-fun cell_4_1 () Int)
(declare-fun cell_5_1 () Int)
(declare-fun cell_6_1 () Int)
(declare-fun cell_7_1 () Int)
(declare-fun cell_8_1 () Int)
(declare-fun cell_9_1 () Int)
(declare-fun cell_1_2 () Int)
(declare-fun cell_2_2 () Int)
(declare-fun cell_3_2 () Int)
(declare-fun cell_4_2 () Int)
(declare-fun cell_5_2 () Int)
(declare-fun cell_6_2 () Int)
(declare-fun cell_7_2 () Int)
(declare-fun cell_9_2 () Int)
(declare-fun cell_2_3 () Int)
(declare-fun cell_3_3 () Int)
(declare-fun cell_4_3 () Int)
(declare-fun cell_5_3 () Int)
(declare-fun cell_7_3 () Int)
(declare-fun cell_8_3 () Int)
(declare-fun cell_9_3 () Int)
(declare-fun cell_1_4 () Int)
(declare-fun cell_2_4 () Int)
(declare-fun cell_4_4 () Int)
(declare-fun cell_5_4 () Int)
(declare-fun cell_6_4 () Int)
(declare-fun cell_7_4 () Int)
(declare-fun cell_8_4 () Int)
(declare-fun cell_9_4 () Int)
(declare-fun cell_1_5 () Int)
(declare-fun cell_2_5 () Int)
(declare-fun cell_3_5 () Int)
(declare-fun cell_4_5 () Int)
(declare-fun cell_5_5 () Int)
(declare-fun cell_6_5 () Int)
(declare-fun cell_8_5 () Int)
(declare-fun cell_9_5 () Int)
(declare-fun cell_1_6 () Int)
(declare-fun cell_3_6 () Int)
(declare-fun cell_5_6 () Int)
(declare-fun cell_6_6 () Int)
(declare-fun cell_7_6 () Int)
(declare-fun cell_8_6 () Int)
(declare-fun cell_9_6 () Int)
(declare-fun cell_1_7 () Int)
(declare-fun cell_2_7 () Int)
(declare-fun cell_3_7 () Int)
(declare-fun cell_4_7 () Int)
(declare-fun cell_5_7 () Int)
(declare-fun cell_6_7 () Int)
(declare-fun cell_7_7 () Int)
(declare-fun cell_8_7 () Int)
(declare-fun cell_1_8 () Int)
(declare-fun cell_4_8 () Int)
(declare-fun cell_5_8 () Int)
(declare-fun cell_6_8 () Int)
(declare-fun cell_7_8 () Int)
(declare-fun cell_8_8 () Int)
(declare-fun cell_9_8 () Int)
(declare-fun cell_1_9 () Int)
(declare-fun cell_2_9 () Int)
(declare-fun cell_3_9 () Int)
(declare-fun cell_6_9 () Int)
(declare-fun cell_7_9 () Int)
(declare-fun cell_8_9 () Int)
(declare-fun cell_9_9 () Int)
(assert
 (= cell_1_1 1))
(assert
 (= cell_1_3 2))
(assert
 (= cell_2_6 2))
(assert
 (= cell_2_8 1))
(assert
 (= cell_3_4 1))
(assert
 (= cell_3_8 2))
(assert
 (= cell_4_6 1))
(assert
 (= cell_4_9 2))
(assert
 (= cell_5_9 1))
(assert
 (= cell_6_3 1))
(assert
 (= cell_7_5 1))
(assert
 (= cell_8_2 1))
(assert
 (= cell_9_7 1))
(assert
 (let (($x6456 (= cell_1_1 1)))
 (or $x6456 (= cell_1_1 2) (= cell_1_1 3) (= cell_1_1 4) (= cell_1_1 5) (= cell_1_1 6) (= cell_1_1 7) (= cell_1_1 8) (= cell_1_1 9))))
(assert
 (let (($x4992 (= cell_2_1 9)))
 (let (($x1974 (= cell_2_1 8)))
 (let (($x878 (= cell_2_1 7)))
 (let (($x314 (= cell_2_1 6)))
 (let (($x2282 (= cell_2_1 5)))
 (let (($x9780 (= cell_2_1 4)))
 (let (($x9981 (= cell_2_1 3)))
 (let (($x8834 (= cell_2_1 2)))
 (let (($x10211 (= cell_2_1 1)))
 (or $x10211 $x8834 $x9981 $x9780 $x2282 $x314 $x878 $x1974 $x4992)))))))))))
(assert
 (let (($x248 (= cell_3_1 9)))
 (let (($x5418 (= cell_3_1 8)))
 (let (($x8848 (= cell_3_1 7)))
 (let (($x9984 (= cell_3_1 6)))
 (let (($x3465 (= cell_3_1 5)))
 (let (($x8690 (= cell_3_1 4)))
 (let (($x441 (= cell_3_1 3)))
 (let (($x169 (= cell_3_1 2)))
 (let (($x3419 (= cell_3_1 1)))
 (or $x3419 $x169 $x441 $x8690 $x3465 $x9984 $x8848 $x5418 $x248)))))))))))
(assert
 (let (($x399 (= cell_4_1 9)))
 (let (($x5209 (= cell_4_1 8)))
 (let (($x6560 (= cell_4_1 7)))
 (let (($x2688 (= cell_4_1 6)))
 (let (($x4484 (= cell_4_1 5)))
 (let (($x1379 (= cell_4_1 4)))
 (let (($x5237 (= cell_4_1 3)))
 (let (($x5134 (= cell_4_1 2)))
 (let (($x7970 (= cell_4_1 1)))
 (or $x7970 $x5134 $x5237 $x1379 $x4484 $x2688 $x6560 $x5209 $x399)))))))))))
(assert
 (let (($x6954 (= cell_5_1 9)))
 (let (($x6119 (= cell_5_1 8)))
 (let (($x2757 (= cell_5_1 7)))
 (let (($x2084 (= cell_5_1 6)))
 (let (($x8792 (= cell_5_1 5)))
 (let (($x4467 (= cell_5_1 4)))
 (let (($x4264 (= cell_5_1 3)))
 (let (($x1039 (= cell_5_1 2)))
 (let (($x8727 (= cell_5_1 1)))
 (or $x8727 $x1039 $x4264 $x4467 $x8792 $x2084 $x2757 $x6119 $x6954)))))))))))
(assert
 (let (($x6392 (= cell_6_1 9)))
 (let (($x3619 (= cell_6_1 8)))
 (let (($x5761 (= cell_6_1 7)))
 (let (($x3502 (= cell_6_1 6)))
 (let (($x9943 (= cell_6_1 5)))
 (let (($x2172 (= cell_6_1 4)))
 (let (($x7159 (= cell_6_1 3)))
 (let (($x5559 (= cell_6_1 2)))
 (let (($x10189 (= cell_6_1 1)))
 (or $x10189 $x5559 $x7159 $x2172 $x9943 $x3502 $x5761 $x3619 $x6392)))))))))))
(assert
 (let (($x1195 (= cell_7_1 9)))
 (let (($x3580 (= cell_7_1 8)))
 (let (($x6701 (= cell_7_1 7)))
 (let (($x8992 (= cell_7_1 6)))
 (let (($x77 (= cell_7_1 5)))
 (let (($x55 (= cell_7_1 4)))
 (let (($x9338 (= cell_7_1 3)))
 (let (($x7895 (= cell_7_1 2)))
 (let (($x3080 (= cell_7_1 1)))
 (or $x3080 $x7895 $x9338 $x55 $x77 $x8992 $x6701 $x3580 $x1195)))))))))))
(assert
 (let (($x10052 (= cell_8_1 9)))
 (let (($x2002 (= cell_8_1 8)))
 (let (($x2188 (= cell_8_1 7)))
 (let (($x7370 (= cell_8_1 6)))
 (let (($x8117 (= cell_8_1 5)))
 (let (($x9444 (= cell_8_1 4)))
 (let (($x8766 (= cell_8_1 3)))
 (let (($x3169 (= cell_8_1 2)))
 (let (($x8793 (= cell_8_1 1)))
 (or $x8793 $x3169 $x8766 $x9444 $x8117 $x7370 $x2188 $x2002 $x10052)))))))))))
(assert
 (let (($x69 (= cell_9_1 9)))
 (let (($x6962 (= cell_9_1 8)))
 (let (($x3910 (= cell_9_1 7)))
 (let (($x4272 (= cell_9_1 6)))
 (let (($x9305 (= cell_9_1 5)))
 (let (($x5762 (= cell_9_1 4)))
 (let (($x1566 (= cell_9_1 3)))
 (let (($x5922 (= cell_9_1 2)))
 (let (($x7586 (= cell_9_1 1)))
 (or $x7586 $x5922 $x1566 $x5762 $x9305 $x4272 $x3910 $x6962 $x69)))))))))))
(assert
 (let (($x416 (= cell_1_2 9)))
 (let (($x3509 (= cell_1_2 8)))
 (let (($x9615 (= cell_1_2 7)))
 (let (($x5161 (= cell_1_2 6)))
 (let (($x6275 (= cell_1_2 5)))
 (let (($x4977 (= cell_1_2 4)))
 (let (($x6675 (= cell_1_2 3)))
 (let (($x1458 (= cell_1_2 2)))
 (let (($x4105 (= cell_1_2 1)))
 (or $x4105 $x1458 $x6675 $x4977 $x6275 $x5161 $x9615 $x3509 $x416)))))))))))
(assert
 (let (($x3605 (= cell_2_2 9)))
 (let (($x7866 (= cell_2_2 8)))
 (let (($x2781 (= cell_2_2 7)))
 (let (($x2510 (= cell_2_2 6)))
 (let (($x2533 (= cell_2_2 5)))
 (let (($x432 (= cell_2_2 4)))
 (let (($x8084 (= cell_2_2 3)))
 (let (($x1993 (= cell_2_2 2)))
 (let (($x1889 (= cell_2_2 1)))
 (or $x1889 $x1993 $x8084 $x432 $x2533 $x2510 $x2781 $x7866 $x3605)))))))))))
(assert
 (let (($x7658 (= cell_3_2 9)))
 (let (($x5229 (= cell_3_2 8)))
 (let (($x1717 (= cell_3_2 7)))
 (let (($x9991 (= cell_3_2 6)))
 (let (($x1301 (= cell_3_2 5)))
 (let (($x301 (= cell_3_2 4)))
 (let (($x2178 (= cell_3_2 3)))
 (let (($x618 (= cell_3_2 2)))
 (let (($x6721 (= cell_3_2 1)))
 (or $x6721 $x618 $x2178 $x301 $x1301 $x9991 $x1717 $x5229 $x7658)))))))))))
(assert
 (let (($x8642 (= cell_4_2 9)))
 (let (($x9047 (= cell_4_2 8)))
 (let (($x2500 (= cell_4_2 7)))
 (let (($x9163 (= cell_4_2 6)))
 (let (($x1964 (= cell_4_2 5)))
 (let (($x7473 (= cell_4_2 4)))
 (let (($x9092 (= cell_4_2 3)))
 (let (($x3556 (= cell_4_2 2)))
 (let (($x8001 (= cell_4_2 1)))
 (or $x8001 $x3556 $x9092 $x7473 $x1964 $x9163 $x2500 $x9047 $x8642)))))))))))
(assert
 (let (($x9315 (= cell_5_2 9)))
 (let (($x4603 (= cell_5_2 8)))
 (let (($x9733 (= cell_5_2 7)))
 (let (($x9711 (= cell_5_2 6)))
 (let (($x2883 (= cell_5_2 5)))
 (let (($x1290 (= cell_5_2 4)))
 (let (($x7348 (= cell_5_2 3)))
 (let (($x8237 (= cell_5_2 2)))
 (let (($x4681 (= cell_5_2 1)))
 (or $x4681 $x8237 $x7348 $x1290 $x2883 $x9711 $x9733 $x4603 $x9315)))))))))))
(assert
 (let (($x9530 (= cell_6_2 9)))
 (let (($x904 (= cell_6_2 8)))
 (let (($x6688 (= cell_6_2 7)))
 (let (($x4696 (= cell_6_2 6)))
 (let (($x7062 (= cell_6_2 5)))
 (let (($x8136 (= cell_6_2 4)))
 (let (($x9928 (= cell_6_2 3)))
 (let (($x9583 (= cell_6_2 2)))
 (let (($x5945 (= cell_6_2 1)))
 (or $x5945 $x9583 $x9928 $x8136 $x7062 $x4696 $x6688 $x904 $x9530)))))))))))
(assert
 (let (($x9043 (= cell_7_2 9)))
 (let (($x7698 (= cell_7_2 8)))
 (let (($x6166 (= cell_7_2 7)))
 (let (($x1365 (= cell_7_2 6)))
 (let (($x3020 (= cell_7_2 5)))
 (let (($x288 (= cell_7_2 4)))
 (let (($x7828 (= cell_7_2 3)))
 (let (($x2506 (= cell_7_2 2)))
 (let (($x7961 (= cell_7_2 1)))
 (or $x7961 $x2506 $x7828 $x288 $x3020 $x1365 $x6166 $x7698 $x9043)))))))))))
(assert
 (let (($x8718 (= cell_8_2 1)))
 (or $x8718 (= cell_8_2 2) (= cell_8_2 3) (= cell_8_2 4) (= cell_8_2 5) (= cell_8_2 6) (= cell_8_2 7) (= cell_8_2 8) (= cell_8_2 9))))
(assert
 (let (($x1582 (= cell_9_2 9)))
 (let (($x3257 (= cell_9_2 8)))
 (let (($x2632 (= cell_9_2 7)))
 (let (($x2593 (= cell_9_2 6)))
 (let (($x2711 (= cell_9_2 5)))
 (let (($x7070 (= cell_9_2 4)))
 (let (($x8771 (= cell_9_2 3)))
 (let (($x7357 (= cell_9_2 2)))
 (let (($x2884 (= cell_9_2 1)))
 (or $x2884 $x7357 $x8771 $x7070 $x2711 $x2593 $x2632 $x3257 $x1582)))))))))))
(assert
 (let (($x1880 (= cell_1_3 2)))
 (or (= cell_1_3 1) $x1880 (= cell_1_3 3) (= cell_1_3 4) (= cell_1_3 5) (= cell_1_3 6) (= cell_1_3 7) (= cell_1_3 8) (= cell_1_3 9))))
(assert
 (let (($x7058 (= cell_2_3 9)))
 (let (($x8906 (= cell_2_3 8)))
 (let (($x2063 (= cell_2_3 7)))
 (let (($x1888 (= cell_2_3 6)))
 (let (($x6863 (= cell_2_3 5)))
 (let (($x3765 (= cell_2_3 4)))
 (let (($x1523 (= cell_2_3 3)))
 (let (($x10245 (= cell_2_3 2)))
 (let (($x937 (= cell_2_3 1)))
 (or $x937 $x10245 $x1523 $x3765 $x6863 $x1888 $x2063 $x8906 $x7058)))))))))))
(assert
 (let (($x5863 (= cell_3_3 9)))
 (let (($x8188 (= cell_3_3 8)))
 (let (($x6344 (= cell_3_3 7)))
 (let (($x1460 (= cell_3_3 6)))
 (let (($x960 (= cell_3_3 5)))
 (let (($x8689 (= cell_3_3 4)))
 (let (($x9585 (= cell_3_3 3)))
 (let (($x7262 (= cell_3_3 2)))
 (let (($x1042 (= cell_3_3 1)))
 (or $x1042 $x7262 $x9585 $x8689 $x960 $x1460 $x6344 $x8188 $x5863)))))))))))
(assert
 (let (($x4731 (= cell_4_3 9)))
 (let (($x2910 (= cell_4_3 8)))
 (let (($x4593 (= cell_4_3 7)))
 (let (($x7659 (= cell_4_3 6)))
 (let (($x5838 (= cell_4_3 5)))
 (let (($x3868 (= cell_4_3 4)))
 (let (($x8023 (= cell_4_3 3)))
 (let (($x5044 (= cell_4_3 2)))
 (let (($x10282 (= cell_4_3 1)))
 (or $x10282 $x5044 $x8023 $x3868 $x5838 $x7659 $x4593 $x2910 $x4731)))))))))))
(assert
 (let (($x6264 (= cell_5_3 9)))
 (let (($x2347 (= cell_5_3 8)))
 (let (($x8383 (= cell_5_3 7)))
 (let (($x3248 (= cell_5_3 6)))
 (let (($x5299 (= cell_5_3 5)))
 (let (($x5202 (= cell_5_3 4)))
 (let (($x5566 (= cell_5_3 3)))
 (let (($x2914 (= cell_5_3 2)))
 (let (($x1118 (= cell_5_3 1)))
 (or $x1118 $x2914 $x5566 $x5202 $x5299 $x3248 $x8383 $x2347 $x6264)))))))))))
(assert
 (let (($x5189 (= cell_6_3 1)))
 (or $x5189 (= cell_6_3 2) (= cell_6_3 3) (= cell_6_3 4) (= cell_6_3 5) (= cell_6_3 6) (= cell_6_3 7) (= cell_6_3 8) (= cell_6_3 9))))
(assert
 (let (($x8107 (= cell_7_3 9)))
 (let (($x7954 (= cell_7_3 8)))
 (let (($x950 (= cell_7_3 7)))
 (let (($x3801 (= cell_7_3 6)))
 (let (($x8010 (= cell_7_3 5)))
 (let (($x362 (= cell_7_3 4)))
 (let (($x2620 (= cell_7_3 3)))
 (let (($x1172 (= cell_7_3 2)))
 (let (($x1827 (= cell_7_3 1)))
 (or $x1827 $x1172 $x2620 $x362 $x8010 $x3801 $x950 $x7954 $x8107)))))))))))
(assert
 (let (($x3632 (= cell_8_3 2)))
 (let (($x6314 (= cell_8_3 1)))
 (or $x6314 $x3632 (= cell_8_3 3) (= cell_8_3 4) (= cell_8_3 5) (= cell_8_3 6) (= cell_8_3 7) (= cell_8_3 8) (= cell_8_3 9)))))
(assert
 (let (($x3199 (= cell_9_3 9)))
 (let (($x1012 (= cell_9_3 8)))
 (let (($x1466 (= cell_9_3 7)))
 (let (($x3907 (= cell_9_3 6)))
 (let (($x1345 (= cell_9_3 5)))
 (let (($x8396 (= cell_9_3 4)))
 (let (($x2421 (= cell_9_3 3)))
 (let (($x2782 (= cell_9_3 2)))
 (let (($x8252 (= cell_9_3 1)))
 (or $x8252 $x2782 $x2421 $x8396 $x1345 $x3907 $x1466 $x1012 $x3199)))))))))))
(assert
 (let (($x4679 (= cell_1_4 9)))
 (let (($x7785 (= cell_1_4 8)))
 (let (($x9087 (= cell_1_4 7)))
 (let (($x4703 (= cell_1_4 6)))
 (let (($x639 (= cell_1_4 5)))
 (let (($x9656 (= cell_1_4 4)))
 (let (($x3911 (= cell_1_4 3)))
 (let (($x7 (= cell_1_4 2)))
 (let (($x3324 (= cell_1_4 1)))
 (or $x3324 $x7 $x3911 $x9656 $x639 $x4703 $x9087 $x7785 $x4679)))))))))))
(assert
 (let (($x7810 (= cell_2_4 9)))
 (let (($x3986 (= cell_2_4 8)))
 (let (($x9779 (= cell_2_4 7)))
 (let (($x3198 (= cell_2_4 6)))
 (let (($x5523 (= cell_2_4 5)))
 (let (($x185 (= cell_2_4 4)))
 (let (($x2977 (= cell_2_4 3)))
 (let (($x1851 (= cell_2_4 2)))
 (let (($x8858 (= cell_2_4 1)))
 (or $x8858 $x1851 $x2977 $x185 $x5523 $x3198 $x9779 $x3986 $x7810)))))))))))
(assert
 (let (($x3769 (= cell_3_4 1)))
 (or $x3769 (= cell_3_4 2) (= cell_3_4 3) (= cell_3_4 4) (= cell_3_4 5) (= cell_3_4 6) (= cell_3_4 7) (= cell_3_4 8) (= cell_3_4 9))))
(assert
 (let (($x2867 (= cell_4_4 9)))
 (let (($x7480 (= cell_4_4 8)))
 (let (($x4649 (= cell_4_4 7)))
 (let (($x8965 (= cell_4_4 6)))
 (let (($x3418 (= cell_4_4 5)))
 (let (($x612 (= cell_4_4 4)))
 (let (($x8053 (= cell_4_4 3)))
 (let (($x4319 (= cell_4_4 2)))
 (let (($x7918 (= cell_4_4 1)))
 (or $x7918 $x4319 $x8053 $x612 $x3418 $x8965 $x4649 $x7480 $x2867)))))))))))
(assert
 (let (($x9219 (= cell_5_4 9)))
 (let (($x3317 (= cell_5_4 8)))
 (let (($x1184 (= cell_5_4 7)))
 (let (($x403 (= cell_5_4 6)))
 (let (($x6106 (= cell_5_4 5)))
 (let (($x303 (= cell_5_4 4)))
 (let (($x2023 (= cell_5_4 3)))
 (let (($x9150 (= cell_5_4 2)))
 (let (($x2166 (= cell_5_4 1)))
 (or $x2166 $x9150 $x2023 $x303 $x6106 $x403 $x1184 $x3317 $x9219)))))))))))
(assert
 (let (($x1148 (= cell_6_4 1)))
 (or $x1148 (= cell_6_4 2) (= cell_6_4 3) (= cell_6_4 4) (= cell_6_4 5) (= cell_6_4 6) (= cell_6_4 7) (= cell_6_4 8) (= cell_6_4 9))))
(assert
 (let (($x4669 (= cell_7_4 9)))
 (let (($x7981 (= cell_7_4 8)))
 (let (($x6277 (= cell_7_4 7)))
 (let (($x4129 (= cell_7_4 6)))
 (let (($x1481 (= cell_7_4 5)))
 (let (($x8596 (= cell_7_4 4)))
 (let (($x3398 (= cell_7_4 3)))
 (let (($x4178 (= cell_7_4 2)))
 (let (($x3989 (= cell_7_4 1)))
 (or $x3989 $x4178 $x3398 $x8596 $x1481 $x4129 $x6277 $x7981 $x4669)))))))))))
(assert
 (let (($x6424 (= cell_8_4 1)))
 (or $x6424 (= cell_8_4 2) (= cell_8_4 3) (= cell_8_4 4) (= cell_8_4 5) (= cell_8_4 6) (= cell_8_4 7) (= cell_8_4 8) (= cell_8_4 9))))
(assert
 (let (($x1797 (= cell_9_4 9)))
 (let (($x10165 (= cell_9_4 8)))
 (let (($x591 (= cell_9_4 7)))
 (let (($x2709 (= cell_9_4 6)))
 (let (($x2109 (= cell_9_4 5)))
 (let (($x2823 (= cell_9_4 4)))
 (let (($x8557 (= cell_9_4 3)))
 (let (($x6156 (= cell_9_4 2)))
 (let (($x4800 (= cell_9_4 1)))
 (or $x4800 $x6156 $x8557 $x2823 $x2109 $x2709 $x591 $x10165 $x1797)))))))))))
(assert
 (let (($x8930 (= cell_1_5 9)))
 (let (($x5401 (= cell_1_5 8)))
 (let (($x7665 (= cell_1_5 7)))
 (let (($x5469 (= cell_1_5 6)))
 (let (($x5666 (= cell_1_5 5)))
 (let (($x2256 (= cell_1_5 4)))
 (let (($x3503 (= cell_1_5 3)))
 (let (($x4667 (= cell_1_5 2)))
 (let (($x4436 (= cell_1_5 1)))
 (or $x4436 $x4667 $x3503 $x2256 $x5666 $x5469 $x7665 $x5401 $x8930)))))))))))
(assert
 (let (($x940 (= cell_2_5 9)))
 (let (($x9933 (= cell_2_5 8)))
 (let (($x25 (= cell_2_5 7)))
 (let (($x6683 (= cell_2_5 6)))
 (let (($x8442 (= cell_2_5 5)))
 (let (($x1809 (= cell_2_5 4)))
 (let (($x6427 (= cell_2_5 3)))
 (let (($x9961 (= cell_2_5 2)))
 (let (($x7339 (= cell_2_5 1)))
 (or $x7339 $x9961 $x6427 $x1809 $x8442 $x6683 $x25 $x9933 $x940)))))))))))
(assert
 (let (($x9413 (= cell_3_5 9)))
 (let (($x7250 (= cell_3_5 8)))
 (let (($x9381 (= cell_3_5 7)))
 (let (($x7300 (= cell_3_5 6)))
 (let (($x1289 (= cell_3_5 5)))
 (let (($x6143 (= cell_3_5 4)))
 (let (($x3763 (= cell_3_5 3)))
 (let (($x1801 (= cell_3_5 2)))
 (let (($x4724 (= cell_3_5 1)))
 (or $x4724 $x1801 $x3763 $x6143 $x1289 $x7300 $x9381 $x7250 $x9413)))))))))))
(assert
 (let (($x8127 (= cell_4_5 9)))
 (let (($x6161 (= cell_4_5 8)))
 (let (($x3188 (= cell_4_5 7)))
 (let (($x7941 (= cell_4_5 6)))
 (let (($x1198 (= cell_4_5 5)))
 (let (($x3600 (= cell_4_5 4)))
 (let (($x6113 (= cell_4_5 3)))
 (let (($x6524 (= cell_4_5 2)))
 (let (($x6219 (= cell_4_5 1)))
 (or $x6219 $x6524 $x6113 $x3600 $x1198 $x7941 $x3188 $x6161 $x8127)))))))))))
(assert
 (let (($x6362 (= cell_5_5 9)))
 (let (($x8367 (= cell_5_5 8)))
 (let (($x4123 (= cell_5_5 7)))
 (let (($x9985 (= cell_5_5 6)))
 (let (($x1266 (= cell_5_5 5)))
 (let (($x6162 (= cell_5_5 4)))
 (let (($x6107 (= cell_5_5 3)))
 (let (($x6366 (= cell_5_5 2)))
 (let (($x712 (= cell_5_5 1)))
 (or $x712 $x6366 $x6107 $x6162 $x1266 $x9985 $x4123 $x8367 $x6362)))))))))))
(assert
 (let (($x9732 (= cell_6_5 9)))
 (let (($x5095 (= cell_6_5 8)))
 (let (($x1349 (= cell_6_5 7)))
 (let (($x1213 (= cell_6_5 6)))
 (let (($x7037 (= cell_6_5 5)))
 (let (($x9865 (= cell_6_5 4)))
 (let (($x6101 (= cell_6_5 3)))
 (let (($x3113 (= cell_6_5 2)))
 (let (($x1951 (= cell_6_5 1)))
 (or $x1951 $x3113 $x6101 $x9865 $x7037 $x1213 $x1349 $x5095 $x9732)))))))))))
(assert
 (let (($x7441 (= cell_7_5 1)))
 (or $x7441 (= cell_7_5 2) (= cell_7_5 3) (= cell_7_5 4) (= cell_7_5 5) (= cell_7_5 6) (= cell_7_5 7) (= cell_7_5 8) (= cell_7_5 9))))
(assert
 (let (($x6847 (= cell_8_5 1)))
 (or $x6847 (= cell_8_5 2) (= cell_8_5 3) (= cell_8_5 4) (= cell_8_5 5) (= cell_8_5 6) (= cell_8_5 7) (= cell_8_5 8) (= cell_8_5 9))))
(assert
 (let (($x1473 (= cell_9_5 9)))
 (let (($x2309 (= cell_9_5 8)))
 (let (($x263 (= cell_9_5 7)))
 (let (($x49 (= cell_9_5 6)))
 (let (($x5679 (= cell_9_5 5)))
 (let (($x5096 (= cell_9_5 4)))
 (let (($x856 (= cell_9_5 3)))
 (let (($x6233 (= cell_9_5 2)))
 (let (($x7223 (= cell_9_5 1)))
 (or $x7223 $x6233 $x856 $x5096 $x5679 $x49 $x263 $x2309 $x1473)))))))))))
(assert
 (let (($x3195 (= cell_1_6 9)))
 (let (($x1440 (= cell_1_6 8)))
 (let (($x3191 (= cell_1_6 7)))
 (let (($x3624 (= cell_1_6 6)))
 (let (($x1313 (= cell_1_6 5)))
 (let (($x15 (= cell_1_6 4)))
 (let (($x6455 (= cell_1_6 3)))
 (let (($x3022 (= cell_1_6 2)))
 (let (($x9171 (= cell_1_6 1)))
 (or $x9171 $x3022 $x6455 $x15 $x1313 $x3624 $x3191 $x1440 $x3195)))))))))))
(assert
 (let (($x6155 (= cell_2_6 2)))
 (or (= cell_2_6 1) $x6155 (= cell_2_6 3) (= cell_2_6 4) (= cell_2_6 5) (= cell_2_6 6) (= cell_2_6 7) (= cell_2_6 8) (= cell_2_6 9))))
(assert
 (let (($x2114 (= cell_3_6 9)))
 (let (($x9062 (= cell_3_6 8)))
 (let (($x4331 (= cell_3_6 7)))
 (let (($x418 (= cell_3_6 6)))
 (let (($x1560 (= cell_3_6 5)))
 (let (($x8672 (= cell_3_6 4)))
 (let (($x6702 (= cell_3_6 3)))
 (let (($x5500 (= cell_3_6 2)))
 (let (($x8953 (= cell_3_6 1)))
 (or $x8953 $x5500 $x6702 $x8672 $x1560 $x418 $x4331 $x9062 $x2114)))))))))))
(assert
 (let (($x9704 (= cell_4_6 1)))
 (or $x9704 (= cell_4_6 2) (= cell_4_6 3) (= cell_4_6 4) (= cell_4_6 5) (= cell_4_6 6) (= cell_4_6 7) (= cell_4_6 8) (= cell_4_6 9))))
(assert
 (let (($x3741 (= cell_5_6 9)))
 (let (($x3246 (= cell_5_6 8)))
 (let (($x1418 (= cell_5_6 7)))
 (let (($x6002 (= cell_5_6 6)))
 (let (($x6886 (= cell_5_6 5)))
 (let (($x3865 (= cell_5_6 4)))
 (let (($x9621 (= cell_5_6 3)))
 (let (($x8573 (= cell_5_6 2)))
 (let (($x9142 (= cell_5_6 1)))
 (or $x9142 $x8573 $x9621 $x3865 $x6886 $x6002 $x1418 $x3246 $x3741)))))))))))
(assert
 (let (($x7279 (= cell_6_6 2)))
 (let (($x5157 (= cell_6_6 1)))
 (or $x5157 $x7279 (= cell_6_6 3) (= cell_6_6 4) (= cell_6_6 5) (= cell_6_6 6) (= cell_6_6 7) (= cell_6_6 8) (= cell_6_6 9)))))
(assert
 (let (($x1805 (= cell_7_6 2)))
 (let (($x3239 (= cell_7_6 1)))
 (or $x3239 $x1805 (= cell_7_6 3) (= cell_7_6 4) (= cell_7_6 5) (= cell_7_6 6) (= cell_7_6 7) (= cell_7_6 8) (= cell_7_6 9)))))
(assert
 (let (($x8605 (= cell_8_6 2)))
 (let (($x3544 (= cell_8_6 1)))
 (or $x3544 $x8605 (= cell_8_6 3) (= cell_8_6 4) (= cell_8_6 5) (= cell_8_6 6) (= cell_8_6 7) (= cell_8_6 8) (= cell_8_6 9)))))
(assert
 (let (($x8800 (= cell_9_6 9)))
 (let (($x8602 (= cell_9_6 8)))
 (let (($x2403 (= cell_9_6 7)))
 (let (($x4835 (= cell_9_6 6)))
 (let (($x177 (= cell_9_6 5)))
 (let (($x1250 (= cell_9_6 4)))
 (let (($x1531 (= cell_9_6 3)))
 (let (($x4236 (= cell_9_6 2)))
 (let (($x928 (= cell_9_6 1)))
 (or $x928 $x4236 $x1531 $x1250 $x177 $x4835 $x2403 $x8602 $x8800)))))))))))
(assert
 (let (($x6231 (= cell_1_7 9)))
 (let (($x896 (= cell_1_7 8)))
 (let (($x6717 (= cell_1_7 7)))
 (let (($x2304 (= cell_1_7 6)))
 (let (($x5759 (= cell_1_7 5)))
 (let (($x6205 (= cell_1_7 4)))
 (let (($x7275 (= cell_1_7 3)))
 (let (($x830 (= cell_1_7 2)))
 (let (($x10201 (= cell_1_7 1)))
 (or $x10201 $x830 $x7275 $x6205 $x5759 $x2304 $x6717 $x896 $x6231)))))))))))
(assert
 (let (($x5361 (= cell_2_7 9)))
 (let (($x7072 (= cell_2_7 8)))
 (let (($x1283 (= cell_2_7 7)))
 (let (($x3756 (= cell_2_7 6)))
 (let (($x4098 (= cell_2_7 5)))
 (let (($x3386 (= cell_2_7 4)))
 (let (($x6718 (= cell_2_7 3)))
 (let (($x2428 (= cell_2_7 2)))
 (let (($x8082 (= cell_2_7 1)))
 (or $x8082 $x2428 $x6718 $x3386 $x4098 $x3756 $x1283 $x7072 $x5361)))))))))))
(assert
 (let (($x9143 (= cell_3_7 9)))
 (let (($x130 (= cell_3_7 8)))
 (let (($x4126 (= cell_3_7 7)))
 (let (($x4964 (= cell_3_7 6)))
 (let (($x3306 (= cell_3_7 5)))
 (let (($x325 (= cell_3_7 4)))
 (let (($x844 (= cell_3_7 3)))
 (let (($x9234 (= cell_3_7 2)))
 (let (($x87 (= cell_3_7 1)))
 (or $x87 $x9234 $x844 $x325 $x3306 $x4964 $x4126 $x130 $x9143)))))))))))
(assert
 (let (($x5112 (= cell_4_7 9)))
 (let (($x9012 (= cell_4_7 8)))
 (let (($x872 (= cell_4_7 7)))
 (let (($x5645 (= cell_4_7 6)))
 (let (($x7892 (= cell_4_7 5)))
 (let (($x687 (= cell_4_7 4)))
 (let (($x938 (= cell_4_7 3)))
 (let (($x3094 (= cell_4_7 2)))
 (let (($x6546 (= cell_4_7 1)))
 (or $x6546 $x3094 $x938 $x687 $x7892 $x5645 $x872 $x9012 $x5112)))))))))))
(assert
 (let (($x1072 (= cell_5_7 9)))
 (let (($x8190 (= cell_5_7 8)))
 (let (($x3653 (= cell_5_7 7)))
 (let (($x3520 (= cell_5_7 6)))
 (let (($x4857 (= cell_5_7 5)))
 (let (($x2571 (= cell_5_7 4)))
 (let (($x7113 (= cell_5_7 3)))
 (let (($x1544 (= cell_5_7 2)))
 (let (($x7066 (= cell_5_7 1)))
 (or $x7066 $x1544 $x7113 $x2571 $x4857 $x3520 $x3653 $x8190 $x1072)))))))))))
(assert
 (let (($x6134 (= cell_6_7 9)))
 (let (($x404 (= cell_6_7 8)))
 (let (($x4527 (= cell_6_7 7)))
 (let (($x4353 (= cell_6_7 6)))
 (let (($x6800 (= cell_6_7 5)))
 (let (($x731 (= cell_6_7 4)))
 (let (($x4614 (= cell_6_7 3)))
 (let (($x4836 (= cell_6_7 2)))
 (let (($x4830 (= cell_6_7 1)))
 (or $x4830 $x4836 $x4614 $x731 $x6800 $x4353 $x4527 $x404 $x6134)))))))))))
(assert
 (let (($x1338 (= cell_7_7 9)))
 (let (($x941 (= cell_7_7 8)))
 (let (($x7512 (= cell_7_7 7)))
 (let (($x2544 (= cell_7_7 6)))
 (let (($x4648 (= cell_7_7 5)))
 (let (($x6977 (= cell_7_7 4)))
 (let (($x9765 (= cell_7_7 3)))
 (let (($x8889 (= cell_7_7 2)))
 (let (($x9508 (= cell_7_7 1)))
 (or $x9508 $x8889 $x9765 $x6977 $x4648 $x2544 $x7512 $x941 $x1338)))))))))))
(assert
 (let (($x7129 (= cell_8_7 9)))
 (let (($x8523 (= cell_8_7 8)))
 (let (($x8712 (= cell_8_7 7)))
 (let (($x6655 (= cell_8_7 6)))
 (let (($x7430 (= cell_8_7 5)))
 (let (($x625 (= cell_8_7 4)))
 (let (($x324 (= cell_8_7 3)))
 (let (($x5727 (= cell_8_7 2)))
 (let (($x6097 (= cell_8_7 1)))
 (or $x6097 $x5727 $x324 $x625 $x7430 $x6655 $x8712 $x8523 $x7129)))))))))))
(assert
 (let (($x6462 (= cell_9_7 1)))
 (or $x6462 (= cell_9_7 2) (= cell_9_7 3) (= cell_9_7 4) (= cell_9_7 5) (= cell_9_7 6) (= cell_9_7 7) (= cell_9_7 8) (= cell_9_7 9))))
(assert
 (let (($x88 (= cell_1_8 9)))
 (let (($x1483 (= cell_1_8 8)))
 (let (($x806 (= cell_1_8 7)))
 (let (($x2521 (= cell_1_8 6)))
 (let (($x5567 (= cell_1_8 5)))
 (let (($x1380 (= cell_1_8 4)))
 (let (($x2293 (= cell_1_8 3)))
 (let (($x18 (= cell_1_8 2)))
 (let (($x4465 (= cell_1_8 1)))
 (or $x4465 $x18 $x2293 $x1380 $x5567 $x2521 $x806 $x1483 $x88)))))))))))
(assert
 (let (($x925 (= cell_2_8 1)))
 (or $x925 (= cell_2_8 2) (= cell_2_8 3) (= cell_2_8 4) (= cell_2_8 5) (= cell_2_8 6) (= cell_2_8 7) (= cell_2_8 8) (= cell_2_8 9))))
(assert
 (let (($x5021 (= cell_3_8 2)))
 (or (= cell_3_8 1) $x5021 (= cell_3_8 3) (= cell_3_8 4) (= cell_3_8 5) (= cell_3_8 6) (= cell_3_8 7) (= cell_3_8 8) (= cell_3_8 9))))
(assert
 (let (($x6215 (= cell_4_8 9)))
 (let (($x8195 (= cell_4_8 8)))
 (let (($x6990 (= cell_4_8 7)))
 (let (($x4976 (= cell_4_8 6)))
 (let (($x8281 (= cell_4_8 5)))
 (let (($x5041 (= cell_4_8 4)))
 (let (($x9331 (= cell_4_8 3)))
 (let (($x2697 (= cell_4_8 2)))
 (let (($x5090 (= cell_4_8 1)))
 (or $x5090 $x2697 $x9331 $x5041 $x8281 $x4976 $x6990 $x8195 $x6215)))))))))))
(assert
 (let (($x7701 (= cell_5_8 9)))
 (let (($x859 (= cell_5_8 8)))
 (let (($x9558 (= cell_5_8 7)))
 (let (($x9814 (= cell_5_8 6)))
 (let (($x3444 (= cell_5_8 5)))
 (let (($x9241 (= cell_5_8 4)))
 (let (($x6087 (= cell_5_8 3)))
 (let (($x5327 (= cell_5_8 2)))
 (let (($x7125 (= cell_5_8 1)))
 (or $x7125 $x5327 $x6087 $x9241 $x3444 $x9814 $x9558 $x859 $x7701)))))))))))
(assert
 (let (($x561 (= cell_6_8 2)))
 (let (($x4276 (= cell_6_8 1)))
 (or $x4276 $x561 (= cell_6_8 3) (= cell_6_8 4) (= cell_6_8 5) (= cell_6_8 6) (= cell_6_8 7) (= cell_6_8 8) (= cell_6_8 9)))))
(assert
 (let (($x6279 (= cell_7_8 9)))
 (let (($x9679 (= cell_7_8 8)))
 (let (($x2528 (= cell_7_8 7)))
 (let (($x816 (= cell_7_8 6)))
 (let (($x3145 (= cell_7_8 5)))
 (let (($x6024 (= cell_7_8 4)))
 (let (($x5582 (= cell_7_8 3)))
 (let (($x9098 (= cell_7_8 2)))
 (let (($x7020 (= cell_7_8 1)))
 (or $x7020 $x9098 $x5582 $x6024 $x3145 $x816 $x2528 $x9679 $x6279)))))))))))
(assert
 (let (($x1627 (= cell_8_8 9)))
 (let (($x3141 (= cell_8_8 8)))
 (let (($x6584 (= cell_8_8 7)))
 (let (($x3485 (= cell_8_8 6)))
 (let (($x4458 (= cell_8_8 5)))
 (let (($x4948 (= cell_8_8 4)))
 (let (($x4127 (= cell_8_8 3)))
 (let (($x2930 (= cell_8_8 2)))
 (let (($x7479 (= cell_8_8 1)))
 (or $x7479 $x2930 $x4127 $x4948 $x4458 $x3485 $x6584 $x3141 $x1627)))))))))))
(assert
 (let (($x1233 (= cell_9_8 2)))
 (let (($x4230 (= cell_9_8 1)))
 (or $x4230 $x1233 (= cell_9_8 3) (= cell_9_8 4) (= cell_9_8 5) (= cell_9_8 6) (= cell_9_8 7) (= cell_9_8 8) (= cell_9_8 9)))))
(assert
 (let (($x7874 (= cell_1_9 9)))
 (let (($x4588 (= cell_1_9 8)))
 (let (($x623 (= cell_1_9 7)))
 (let (($x7685 (= cell_1_9 6)))
 (let (($x4071 (= cell_1_9 5)))
 (let (($x7919 (= cell_1_9 4)))
 (let (($x246 (= cell_1_9 3)))
 (let (($x837 (= cell_1_9 2)))
 (let (($x9534 (= cell_1_9 1)))
 (or $x9534 $x837 $x246 $x7919 $x4071 $x7685 $x623 $x4588 $x7874)))))))))))
(assert
 (let (($x3561 (= cell_2_9 9)))
 (let (($x4487 (= cell_2_9 8)))
 (let (($x8241 (= cell_2_9 7)))
 (let (($x7318 (= cell_2_9 6)))
 (let (($x6788 (= cell_2_9 5)))
 (let (($x161 (= cell_2_9 4)))
 (let (($x1530 (= cell_2_9 3)))
 (let (($x1471 (= cell_2_9 2)))
 (let (($x5332 (= cell_2_9 1)))
 (or $x5332 $x1471 $x1530 $x161 $x6788 $x7318 $x8241 $x4487 $x3561)))))))))))
(assert
 (let (($x8298 (= cell_3_9 9)))
 (let (($x8187 (= cell_3_9 8)))
 (let (($x9337 (= cell_3_9 7)))
 (let (($x3645 (= cell_3_9 6)))
 (let (($x3723 (= cell_3_9 5)))
 (let (($x9749 (= cell_3_9 4)))
 (let (($x8467 (= cell_3_9 3)))
 (let (($x5842 (= cell_3_9 2)))
 (let (($x6914 (= cell_3_9 1)))
 (or $x6914 $x5842 $x8467 $x9749 $x3723 $x3645 $x9337 $x8187 $x8298)))))))))))
(assert
 (let (($x1504 (= cell_4_9 2)))
 (or (= cell_4_9 1) $x1504 (= cell_4_9 3) (= cell_4_9 4) (= cell_4_9 5) (= cell_4_9 6) (= cell_4_9 7) (= cell_4_9 8) (= cell_4_9 9))))
(assert
 (let (($x611 (= cell_5_9 1)))
 (or $x611 (= cell_5_9 2) (= cell_5_9 3) (= cell_5_9 4) (= cell_5_9 5) (= cell_5_9 6) (= cell_5_9 7) (= cell_5_9 8) (= cell_5_9 9))))
(assert
 (let (($x2234 (= cell_6_9 2)))
 (let (($x2679 (= cell_6_9 1)))
 (or $x2679 $x2234 (= cell_6_9 3) (= cell_6_9 4) (= cell_6_9 5) (= cell_6_9 6) (= cell_6_9 7) (= cell_6_9 8) (= cell_6_9 9)))))
(assert
 (let (($x5912 (= cell_7_9 9)))
 (let (($x8910 (= cell_7_9 8)))
 (let (($x7600 (= cell_7_9 7)))
 (let (($x172 (= cell_7_9 6)))
 (let (($x4304 (= cell_7_9 5)))
 (let (($x9236 (= cell_7_9 4)))
 (let (($x9332 (= cell_7_9 3)))
 (let (($x4624 (= cell_7_9 2)))
 (let (($x10013 (= cell_7_9 1)))
 (or $x10013 $x4624 $x9332 $x9236 $x4304 $x172 $x7600 $x8910 $x5912)))))))))))
(assert
 (let (($x8863 (= cell_8_9 9)))
 (let (($x94 (= cell_8_9 8)))
 (let (($x8857 (= cell_8_9 7)))
 (let (($x1127 (= cell_8_9 6)))
 (let (($x2165 (= cell_8_9 5)))
 (let (($x2336 (= cell_8_9 4)))
 (let (($x4012 (= cell_8_9 3)))
 (let (($x7338 (= cell_8_9 2)))
 (let (($x3774 (= cell_8_9 1)))
 (or $x3774 $x7338 $x4012 $x2336 $x2165 $x1127 $x8857 $x94 $x8863)))))))))))
(assert
 (let (($x831 (= cell_9_9 2)))
 (let (($x7079 (= cell_9_9 1)))
 (or $x7079 $x831 (= cell_9_9 3) (= cell_9_9 4) (= cell_9_9 5) (= cell_9_9 6) (= cell_9_9 7) (= cell_9_9 8) (= cell_9_9 9)))))
(assert
 (and (distinct cell_1_1 cell_1_2 cell_1_3 cell_1_4 cell_1_5 cell_1_6 cell_1_7 cell_1_8 cell_1_9) true))
(assert
 (and (distinct cell_2_1 cell_2_2 cell_2_3 cell_2_4 cell_2_5 cell_2_6 cell_2_7 cell_2_8 cell_2_9) true))
(assert
 (and (distinct cell_3_1 cell_3_2 cell_3_3 cell_3_4 cell_3_5 cell_3_6 cell_3_7 cell_3_8 cell_3_9) true))
(assert
 (and (distinct cell_4_1 cell_4_2 cell_4_3 cell_4_4 cell_4_5 cell_4_6 cell_4_7 cell_4_8 cell_4_9) true))
(assert
 (and (distinct cell_5_1 cell_5_2 cell_5_3 cell_5_4 cell_5_5 cell_5_6 cell_5_7 cell_5_8 cell_5_9) true))
(assert
 (and (distinct cell_6_1 cell_6_2 cell_6_3 cell_6_4 cell_6_5 cell_6_6 cell_6_7 cell_6_8 cell_6_9) true))
(assert
 (and (distinct cell_7_1 cell_7_2 cell_7_3 cell_7_4 cell_7_5 cell_7_6 cell_7_7 cell_7_8 cell_7_9) true))
(assert
 (and (distinct cell_8_1 cell_8_2 cell_8_3 cell_8_4 cell_8_5 cell_8_6 cell_8_7 cell_8_8 cell_8_9) true))
(assert
 (and (distinct cell_9_1 cell_9_2 cell_9_3 cell_9_4 cell_9_5 cell_9_6 cell_9_7 cell_9_8 cell_9_9) true))
(assert
 (and (distinct cell_1_1 cell_2_1 cell_3_1 cell_4_1 cell_5_1 cell_6_1 cell_7_1 cell_8_1 cell_9_1) true))
(assert
 (and (distinct cell_1_2 cell_2_2 cell_3_2 cell_4_2 cell_5_2 cell_6_2 cell_7_2 cell_8_2 cell_9_2) true))
(assert
 (and (distinct cell_1_3 cell_2_3 cell_3_3 cell_4_3 cell_5_3 cell_6_3 cell_7_3 cell_8_3 cell_9_3) true))
(assert
 (and (distinct cell_1_4 cell_2_4 cell_3_4 cell_4_4 cell_5_4 cell_6_4 cell_7_4 cell_8_4 cell_9_4) true))
(assert
 (and (distinct cell_1_5 cell_2_5 cell_3_5 cell_4_5 cell_5_5 cell_6_5 cell_7_5 cell_8_5 cell_9_5) true))
(assert
 (and (distinct cell_1_6 cell_2_6 cell_3_6 cell_4_6 cell_5_6 cell_6_6 cell_7_6 cell_8_6 cell_9_6) true))
(assert
 (and (distinct cell_1_7 cell_2_7 cell_3_7 cell_4_7 cell_5_7 cell_6_7 cell_7_7 cell_8_7 cell_9_7) true))
(assert
 (and (distinct cell_1_8 cell_2_8 cell_3_8 cell_4_8 cell_5_8 cell_6_8 cell_7_8 cell_8_8 cell_9_8) true))
(assert
 (and (distinct cell_1_9 cell_2_9 cell_3_9 cell_4_9 cell_5_9 cell_6_9 cell_7_9 cell_8_9 cell_9_9) true))
(assert
 (and (distinct cell_1_1 cell_1_2 cell_1_3 cell_2_1 cell_2_2 cell_2_3 cell_3_1 cell_3_2 cell_3_3) true))
(assert
 (and (distinct cell_1_4 cell_1_5 cell_1_6 cell_2_4 cell_2_5 cell_2_6 cell_3_4 cell_3_5 cell_3_6) true))
(assert
 (and (distinct cell_1_7 cell_1_8 cell_1_9 cell_2_7 cell_2_8 cell_2_9 cell_3_7 cell_3_8 cell_3_9) true))
(assert
 (and (distinct cell_4_1 cell_4_2 cell_4_3 cell_5_1 cell_5_2 cell_5_3 cell_6_1 cell_6_2 cell_6_3) true))
(assert
 (and (distinct cell_4_4 cell_4_5 cell_4_6 cell_5_4 cell_5_5 cell_5_6 cell_6_4 cell_6_5 cell_6_6) true))
(assert
 (and (distinct cell_4_7 cell_4_8 cell_4_9 cell_5_7 cell_5_8 cell_5_9 cell_6_7 cell_6_8 cell_6_9) true))
(assert
 (and (distinct cell_7_1 cell_7_2 cell_7_3 cell_8_1 cell_8_2 cell_8_3 cell_9_1 cell_9_2 cell_9_3) true))
(assert
 (and (distinct cell_7_4 cell_7_5 cell_7_6 cell_8_4 cell_8_5 cell_8_6 cell_9_4 cell_9_5 cell_9_6) true))
(assert
 (and (distinct cell_7_7 cell_7_8 cell_7_9 cell_8_7 cell_8_8 cell_8_9 cell_9_7 cell_9_8 cell_9_9) true))
(assert
 (let (($x9748 (and (distinct cell_5_9 cell_6_8 cell_7_7 cell_8_6) true)))
 (let (($x8844 (and (distinct cell_2_9 cell_3_8 cell_4_7 cell_5_6 cell_6_5 cell_7_4 cell_8_3 cell_9_2) true)))
 (let (($x6654 (and (distinct cell_1_8 cell_2_7 cell_3_6 cell_4_5 cell_5_4 cell_6_3 cell_7_2 cell_8_1) true)))
 (let (($x176 (and (distinct cell_1_5 cell_2_4 cell_3_3 cell_4_2) true)))
 (let (($x9902 (and (distinct cell_5_1 cell_6_2 cell_7_3 cell_8_4) true)))
 (let (($x2060 (and (distinct cell_2_1 cell_3_2 cell_4_3 cell_5_4 cell_6_5 cell_7_6 cell_8_7 cell_9_8) true)))
 (let (($x7584 (and (distinct cell_1_2 cell_2_3 cell_3_4 cell_4_5 cell_5_6 cell_6_7 cell_7_8 cell_8_9) true)))
 (let (($x9676 (and (distinct cell_1_5 cell_2_6 cell_3_7 cell_4_8) true)))
 (and $x9676 $x7584 $x2060 $x9902 $x176 $x6654 $x8844 $x9748))))))))))
(assert
 (= cell_5_1 2))
(check-sat)
